(set-info :source |printed by MathSAT|)
(declare-fun call__DRAGON_.ite () Bool)
(declare-fun call__DRAGON_.ite46 () Int)
(declare-fun call__DRAGON_.ite39 () Int)
(declare-fun call__DRAGON_.ite53 () Int)
(declare-fun call__DRAGON_.exclusive () Int)
(declare-fun call__DRAGON_.flby () Int)
(declare-fun call__DRAGON_.ite35 () Int)
(declare-fun call__DRAGON_.ite37 () Int)
(declare-fun call__DRAGON_.ite21 () Int)
(declare-fun call__DRAGON_.ite47 () Int)
(declare-fun call__DRAGON_.ite27 () Int)
(declare-fun call__DRAGON_.ite28 () Int)
(declare-fun call__DRAGON_.ite43 () Int)
(declare-fun invalid () Int)
(declare-fun call__DRAGON_.g08 () Bool)
(declare-fun call__DRAGON_.flby4 () Int)
(declare-fun call__DRAGON_.ite49 () Int)
(declare-fun env () Bool)
(declare-fun call__DRAGON_.ite45 () Int)
(declare-fun param_e11 () Bool)
(declare-fun call__DRAGON_.g04 () Bool)
(declare-fun call__DRAGON_.ite60 () Int)
(declare-fun call__DRAGON_.flby2 () Int)
(declare-fun call__DRAGON_.ite23 () Int)
(declare-fun call__DRAGON_.ite48 () Int)
(declare-fun call__DRAGON_.ite40 () Int)
(declare-fun call__DRAGON_.ite31 () Int)
(declare-fun call__DRAGON_.ite13 () Int)
(declare-fun call_Sofar.flby () Bool)
(declare-fun call__DRAGON_.ite58 () Int)
(declare-fun call__DRAGON_.ite52 () Int)
(declare-fun call__DRAGON_.ite9 () Int)
(declare-fun call__DRAGON_.ite38 () Int)
(declare-fun call__DRAGON_.ite41 () Int)
(declare-fun param_e04 () Bool)
(declare-fun dirty () Int)
(declare-fun call__DRAGON_.ite54 () Int)
(declare-fun call__DRAGON_.ite14 () Int)
(declare-fun param_e01 () Bool)
(declare-fun call__DRAGON_.ite6 () Int)
(declare-fun call__DRAGON_.g02 () Bool)
(declare-fun call__DRAGON_.ite51 () Int)
(declare-fun call__DRAGON_.erreur () Bool)
(declare-fun call__DRAGON_.g05 () Bool)
(declare-fun call_excludes12.excludes () Bool)
(declare-fun call__DRAGON_.ite44 () Int)
(declare-fun call__DRAGON_.ite20 () Int)
(declare-fun call__DRAGON_.ite57 () Int)
(declare-fun shared_dirty () Int)
(declare-fun call__DRAGON_.ite56 () Int)
(declare-fun call__DRAGON_.ite10 () Int)
(declare-fun call__DRAGON_.ite59 () Int)
(declare-fun call__DRAGON_.ite17 () Int)
(declare-fun param_e10 () Bool)
(declare-fun call__DRAGON_.ite29 () Int)
(declare-fun call__DRAGON_.ite33 () Int)
(declare-fun call__DRAGON_.mem_init () Int)
(declare-fun call__DRAGON_.flby6 () Int)
(declare-fun call__DRAGON_.ite26 () Int)
(declare-fun call__DRAGON_.ite24 () Int)
(declare-fun call__DRAGON_.shared () Int)
(declare-fun param_e02 () Bool)
(declare-fun call__DRAGON_.dirty () Int)
(declare-fun call__DRAGON_.ite19 () Int)
(declare-fun call_Sofar.Sofar () Bool)
(declare-fun param_e05 () Bool)
(declare-fun param_e08 () Bool)
(declare-fun call__DRAGON_.ite34 () Int)
(declare-fun param_e06 () Bool)
(declare-fun call__DRAGON_.ite36 () Int)
(declare-fun call__DRAGON_.ite55 () Int)
(declare-fun call__DRAGON_.ite15 () Int)
(declare-fun call__DRAGON_.ite2 () Int)
(declare-fun param_e07 () Bool)
(declare-fun call__DRAGON_.ite5 () Int)
(declare-fun call__DRAGON_.g06 () Bool)
(declare-fun call__DRAGON_.ite16 () Int)
(declare-fun erreur () Bool)
(declare-fun call__DRAGON_.ite42 () Int)
(declare-fun shared () Int)
(declare-fun call__DRAGON_.ite30 () Int)
(declare-fun call__DRAGON_.ite3 () Int)
(declare-fun param_e09 () Bool)
(declare-fun call__DRAGON_.invalid () Int)
(declare-fun call__DRAGON_.ite8 () Int)
(declare-fun call__DRAGON_.shared_dirty () Int)
(declare-fun call__DRAGON_.ite12 () Int)
(declare-fun param_init_invalid () Int)
(declare-fun exclusive () Int)
(declare-fun call__DRAGON_.ite32 () Int)
(declare-fun call__DRAGON_.ite25 () Int)
(declare-fun call__DRAGON_.flby3 () Int)
(declare-fun call__DRAGON_.ite4 () Int)
(declare-fun call__DRAGON_.ite7 () Int)
(declare-fun call__DRAGON_.ite18 () Int)
(declare-fun call__DRAGON_.ite61 () Int)
(declare-fun param_e12 () Bool)
(declare-fun _OK_ () Bool)
(declare-fun call__DRAGON_.ite11 () Int)
(declare-fun call__DRAGON_.flby5 () Int)
(declare-fun param_e03 () Bool)
(declare-fun call__DRAGON_.ite50 () Int)
(declare-fun call__DRAGON_.ite22 () Int)
(define-fun .def_1734 () Bool (= call_Sofar.flby call_Sofar.Sofar))
(define-fun .def_1543 () Bool (not param_e02))
(define-fun .def_1524 () Bool (not param_e01))
(define-fun .def_1632 () Bool (and .def_1524 .def_1543))
(define-fun .def_1583 () Bool (not param_e03))
(define-fun .def_1633 () Bool (and .def_1583 .def_1632))
(define-fun .def_1599 () Bool (not param_e04))
(define-fun .def_1634 () Bool (and .def_1599 .def_1633))
(define-fun .def_1390 () Bool (not param_e05))
(define-fun .def_1635 () Bool (and .def_1390 .def_1634))
(define-fun .def_1374 () Bool (not param_e06))
(define-fun .def_1636 () Bool (and .def_1374 .def_1635))
(define-fun .def_1410 () Bool (not param_e07))
(define-fun .def_1637 () Bool (and .def_1410 .def_1636))
(define-fun .def_1428 () Bool (not param_e08))
(define-fun .def_1638 () Bool (and .def_1428 .def_1637))
(define-fun .def_1270 () Bool (not param_e09))
(define-fun .def_1639 () Bool (and .def_1270 .def_1638))
(define-fun .def_1276 () Bool (not param_e10))
(define-fun .def_1640 () Bool (and .def_1276 .def_1639))
(define-fun .def_1283 () Bool (not param_e11))
(define-fun .def_1641 () Bool (and .def_1283 .def_1640))
(define-fun .def_1290 () Bool (not param_e12))
(define-fun .def_1719 () Bool (and .def_1290 .def_1641))
(define-fun .def_1708 () Bool (and param_e01 .def_1543))
(define-fun .def_1709 () Bool (and .def_1583 .def_1708))
(define-fun .def_1710 () Bool (and .def_1599 .def_1709))
(define-fun .def_1711 () Bool (and .def_1390 .def_1710))
(define-fun .def_1712 () Bool (and .def_1374 .def_1711))
(define-fun .def_1713 () Bool (and .def_1410 .def_1712))
(define-fun .def_1714 () Bool (and .def_1428 .def_1713))
(define-fun .def_1715 () Bool (and .def_1270 .def_1714))
(define-fun .def_1716 () Bool (and .def_1276 .def_1715))
(define-fun .def_1717 () Bool (and .def_1283 .def_1716))
(define-fun .def_1718 () Bool (and .def_1290 .def_1717))
(define-fun .def_1720 () Bool (or .def_1718 .def_1719))
(define-fun .def_1697 () Bool (and .def_1524 param_e02))
(define-fun .def_1698 () Bool (and .def_1583 .def_1697))
(define-fun .def_1699 () Bool (and .def_1599 .def_1698))
(define-fun .def_1700 () Bool (and .def_1390 .def_1699))
(define-fun .def_1701 () Bool (and .def_1374 .def_1700))
(define-fun .def_1702 () Bool (and .def_1410 .def_1701))
(define-fun .def_1703 () Bool (and .def_1428 .def_1702))
(define-fun .def_1704 () Bool (and .def_1270 .def_1703))
(define-fun .def_1705 () Bool (and .def_1276 .def_1704))
(define-fun .def_1706 () Bool (and .def_1283 .def_1705))
(define-fun .def_1707 () Bool (and .def_1290 .def_1706))
(define-fun .def_1721 () Bool (or .def_1707 .def_1720))
(define-fun .def_1687 () Bool (and param_e03 .def_1632))
(define-fun .def_1688 () Bool (and .def_1599 .def_1687))
(define-fun .def_1689 () Bool (and .def_1390 .def_1688))
(define-fun .def_1690 () Bool (and .def_1374 .def_1689))
(define-fun .def_1691 () Bool (and .def_1410 .def_1690))
(define-fun .def_1692 () Bool (and .def_1428 .def_1691))
(define-fun .def_1693 () Bool (and .def_1270 .def_1692))
(define-fun .def_1694 () Bool (and .def_1276 .def_1693))
(define-fun .def_1695 () Bool (and .def_1283 .def_1694))
(define-fun .def_1696 () Bool (and .def_1290 .def_1695))
(define-fun .def_1722 () Bool (or .def_1696 .def_1721))
(define-fun .def_1678 () Bool (and param_e04 .def_1633))
(define-fun .def_1679 () Bool (and .def_1390 .def_1678))
(define-fun .def_1680 () Bool (and .def_1374 .def_1679))
(define-fun .def_1681 () Bool (and .def_1410 .def_1680))
(define-fun .def_1682 () Bool (and .def_1428 .def_1681))
(define-fun .def_1683 () Bool (and .def_1270 .def_1682))
(define-fun .def_1684 () Bool (and .def_1276 .def_1683))
(define-fun .def_1685 () Bool (and .def_1283 .def_1684))
(define-fun .def_1686 () Bool (and .def_1290 .def_1685))
(define-fun .def_1723 () Bool (or .def_1686 .def_1722))
(define-fun .def_1670 () Bool (and param_e05 .def_1634))
(define-fun .def_1671 () Bool (and .def_1374 .def_1670))
(define-fun .def_1672 () Bool (and .def_1410 .def_1671))
(define-fun .def_1673 () Bool (and .def_1428 .def_1672))
(define-fun .def_1674 () Bool (and .def_1270 .def_1673))
(define-fun .def_1675 () Bool (and .def_1276 .def_1674))
(define-fun .def_1676 () Bool (and .def_1283 .def_1675))
(define-fun .def_1677 () Bool (and .def_1290 .def_1676))
(define-fun .def_1724 () Bool (or .def_1677 .def_1723))
(define-fun .def_1663 () Bool (and param_e06 .def_1635))
(define-fun .def_1664 () Bool (and .def_1410 .def_1663))
(define-fun .def_1665 () Bool (and .def_1428 .def_1664))
(define-fun .def_1666 () Bool (and .def_1270 .def_1665))
(define-fun .def_1667 () Bool (and .def_1276 .def_1666))
(define-fun .def_1668 () Bool (and .def_1283 .def_1667))
(define-fun .def_1669 () Bool (and .def_1290 .def_1668))
(define-fun .def_1725 () Bool (or .def_1669 .def_1724))
(define-fun .def_1657 () Bool (and param_e07 .def_1636))
(define-fun .def_1658 () Bool (and .def_1428 .def_1657))
(define-fun .def_1659 () Bool (and .def_1270 .def_1658))
(define-fun .def_1660 () Bool (and .def_1276 .def_1659))
(define-fun .def_1661 () Bool (and .def_1283 .def_1660))
(define-fun .def_1662 () Bool (and .def_1290 .def_1661))
(define-fun .def_1726 () Bool (or .def_1662 .def_1725))
(define-fun .def_1652 () Bool (and param_e08 .def_1637))
(define-fun .def_1653 () Bool (and .def_1270 .def_1652))
(define-fun .def_1654 () Bool (and .def_1276 .def_1653))
(define-fun .def_1655 () Bool (and .def_1283 .def_1654))
(define-fun .def_1656 () Bool (and .def_1290 .def_1655))
(define-fun .def_1727 () Bool (or .def_1656 .def_1726))
(define-fun .def_1648 () Bool (and param_e09 .def_1638))
(define-fun .def_1649 () Bool (and .def_1276 .def_1648))
(define-fun .def_1650 () Bool (and .def_1283 .def_1649))
(define-fun .def_1651 () Bool (and .def_1290 .def_1650))
(define-fun .def_1728 () Bool (or .def_1651 .def_1727))
(define-fun .def_1645 () Bool (and param_e10 .def_1639))
(define-fun .def_1646 () Bool (and .def_1283 .def_1645))
(define-fun .def_1647 () Bool (and .def_1290 .def_1646))
(define-fun .def_1729 () Bool (or .def_1647 .def_1728))
(define-fun .def_1643 () Bool (and param_e11 .def_1640))
(define-fun .def_1644 () Bool (and .def_1290 .def_1643))
(define-fun .def_1730 () Bool (or .def_1644 .def_1729))
(define-fun .def_1642 () Bool (and param_e12 .def_1641))
(define-fun .def_1731 () Bool (or .def_1642 .def_1730))
(define-fun .def_1732 () Bool (= call_excludes12.excludes .def_1731))
(define-fun .def_1630 () Bool (= call__DRAGON_.mem_init call__DRAGON_.flby))
(define-fun .def_1628 () Bool (= call__DRAGON_.erreur call__DRAGON_.ite))
(define-fun .def_1626 () Bool (= call__DRAGON_.flby6 call__DRAGON_.invalid))
(define-fun .def_1624 () Bool (= call__DRAGON_.flby5 call__DRAGON_.dirty))
(define-fun .def_1622 () Bool (= call__DRAGON_.flby4 call__DRAGON_.shared_dirty))
(define-fun .def_1620 () Bool (= call__DRAGON_.flby3 call__DRAGON_.shared))
(define-fun .def_1617 () Bool (= call__DRAGON_.flby2 call__DRAGON_.exclusive))
(define-fun .def_1612 () Bool (<= 2 call__DRAGON_.exclusive))
(define-fun .def_1614 () Bool (not .def_1612))
(define-fun .def_1615 () Bool (or call__DRAGON_.ite .def_1614))
(define-fun .def_1611 () Bool (not call__DRAGON_.ite))
(define-fun .def_1613 () Bool (or .def_1611 .def_1612))
(define-fun .def_1616 () Bool (and .def_1613 .def_1615))
(define-fun .def_1618 () Bool (and .def_1616 .def_1617))
(define-fun .def_1606 () Bool (= call__DRAGON_.ite42 call__DRAGON_.ite43))
(define-fun .def_1607 () Bool (or param_e04 .def_1606))
(define-fun .def_1603 () Bool (= call__DRAGON_.ite43 call__DRAGON_.ite34))
(define-fun .def_1604 () Bool (or .def_1599 .def_1603))
(define-fun .def_1598 () Bool (= call__DRAGON_.ite23 call__DRAGON_.ite30))
(define-fun .def_1600 () Bool (or .def_1598 .def_1599))
(define-fun .def_1595 () Bool (= call__DRAGON_.ite29 call__DRAGON_.ite30))
(define-fun .def_1597 () Bool (or .def_1595 param_e04))
(define-fun .def_1601 () Bool (and .def_1597 .def_1600))
(define-fun .def_1605 () Bool (and .def_1601 .def_1604))
(define-fun .def_1608 () Bool (and .def_1605 .def_1607))
(define-fun .def_1591 () Bool (= call__DRAGON_.ite44 call__DRAGON_.ite43))
(define-fun .def_1592 () Bool (or param_e03 .def_1591))
(define-fun .def_1587 () Bool (= call__DRAGON_.ite44 call__DRAGON_.ite33))
(define-fun .def_1588 () Bool (or .def_1583 .def_1587))
(define-fun .def_1582 () Bool (= call__DRAGON_.ite9 call__DRAGON_.ite4))
(define-fun .def_1584 () Bool (or .def_1582 .def_1583))
(define-fun .def_1578 () Bool (= call__DRAGON_.ite8 call__DRAGON_.ite9))
(define-fun .def_1580 () Bool (or .def_1578 param_e03))
(define-fun .def_1585 () Bool (and .def_1580 .def_1584))
(define-fun .def_1589 () Bool (and .def_1585 .def_1588))
(define-fun .def_1593 () Bool (and .def_1589 .def_1592))
(define-fun .def_1574 () Bool (= call__DRAGON_.ite31 call__DRAGON_.ite30))
(define-fun .def_1575 () Bool (or param_e02 .def_1574))
(define-fun .def_1570 () Bool (= call__DRAGON_.ite22 call__DRAGON_.ite31))
(define-fun .def_1571 () Bool (or .def_1543 .def_1570))
(define-fun .def_1565 () Bool (= call__DRAGON_.ite20 call__DRAGON_.ite21))
(define-fun .def_1566 () Bool (or param_e02 .def_1565))
(define-fun .def_1562 () Bool (= call__DRAGON_.ite12 call__DRAGON_.ite21))
(define-fun .def_1563 () Bool (or .def_1543 .def_1562))
(define-fun .def_1557 () Bool (= call__DRAGON_.ite10 call__DRAGON_.ite9))
(define-fun .def_1558 () Bool (or param_e02 .def_1557))
(define-fun .def_1553 () Bool (= call__DRAGON_.ite3 call__DRAGON_.ite10))
(define-fun .def_1554 () Bool (or .def_1543 .def_1553))
(define-fun .def_1550 () Bool (= call__DRAGON_.ite59 call__DRAGON_.ite60))
(define-fun .def_1551 () Bool (or param_e02 .def_1550))
(define-fun .def_1547 () Bool (= call__DRAGON_.ite60 call__DRAGON_.ite47))
(define-fun .def_1548 () Bool (or .def_1543 .def_1547))
(define-fun .def_1542 () Bool (= call__DRAGON_.ite32 call__DRAGON_.ite45))
(define-fun .def_1544 () Bool (or .def_1542 .def_1543))
(define-fun .def_1539 () Bool (= call__DRAGON_.ite45 call__DRAGON_.ite44))
(define-fun .def_1541 () Bool (or .def_1539 param_e02))
(define-fun .def_1545 () Bool (and .def_1541 .def_1544))
(define-fun .def_1549 () Bool (and .def_1545 .def_1548))
(define-fun .def_1552 () Bool (and .def_1549 .def_1551))
(define-fun .def_1555 () Bool (and .def_1552 .def_1554))
(define-fun .def_1559 () Bool (and .def_1555 .def_1558))
(define-fun .def_1564 () Bool (and .def_1559 .def_1563))
(define-fun .def_1567 () Bool (and .def_1564 .def_1566))
(define-fun .def_1572 () Bool (and .def_1567 .def_1571))
(define-fun .def_1576 () Bool (and .def_1572 .def_1575))
(define-fun .def_1533 () Bool (= call__DRAGON_.ite11 call__DRAGON_.ite10))
(define-fun .def_1534 () Bool (or param_e01 .def_1533))
(define-fun .def_1529 () Bool (= call__DRAGON_.ite2 call__DRAGON_.ite11))
(define-fun .def_1530 () Bool (or .def_1524 .def_1529))
(define-fun .def_1523 () Bool (= call__DRAGON_.ite61 call__DRAGON_.ite46))
(define-fun .def_1525 () Bool (or .def_1523 .def_1524))
(define-fun .def_1519 () Bool (= call__DRAGON_.ite61 call__DRAGON_.ite60))
(define-fun .def_1521 () Bool (or .def_1519 param_e01))
(define-fun .def_1526 () Bool (and .def_1521 .def_1525))
(define-fun .def_1531 () Bool (and .def_1526 .def_1530))
(define-fun .def_1535 () Bool (and .def_1531 .def_1534))
(define-fun .def_1513 () Bool (= call__DRAGON_.ite55 call__DRAGON_.ite52))
(define-fun .def_1514 () Bool (or .def_1283 .def_1513))
(define-fun .def_1510 () Bool (= call__DRAGON_.ite54 call__DRAGON_.ite55))
(define-fun .def_1511 () Bool (or param_e11 .def_1510))
(define-fun .def_1515 () Bool (and .def_1511 .def_1514))
(define-fun .def_1506 () Bool (= call__DRAGON_.ite56 call__DRAGON_.ite51))
(define-fun .def_1507 () Bool (or .def_1276 .def_1506))
(define-fun .def_1503 () Bool (= call__DRAGON_.ite56 call__DRAGON_.ite55))
(define-fun .def_1504 () Bool (or param_e10 .def_1503))
(define-fun .def_1508 () Bool (and .def_1504 .def_1507))
(define-fun .def_1500 () Bool (= env call_Sofar.Sofar))
(define-fun .def_1495 () Bool (= call__DRAGON_.ite57 call__DRAGON_.ite50))
(define-fun .def_1496 () Bool (or .def_1270 .def_1495))
(define-fun .def_1492 () Bool (= call__DRAGON_.ite57 call__DRAGON_.ite56))
(define-fun .def_1493 () Bool (or param_e09 .def_1492))
(define-fun .def_1497 () Bool (and .def_1493 .def_1496))
(define-fun .def_1489 () Bool (= erreur call__DRAGON_.erreur))
(define-fun .def_1485 () Bool (= invalid call__DRAGON_.invalid))
(define-fun .def_1481 () Bool (= dirty call__DRAGON_.dirty))
(define-fun .def_1477 () Bool (= shared_dirty call__DRAGON_.shared_dirty))
(define-fun .def_1473 () Bool (= shared call__DRAGON_.shared))
(define-fun .def_1470 () Bool (= exclusive call__DRAGON_.exclusive))
(define-fun .def_1464 () Bool (<= 0 shared))
(define-fun .def_1462 () Bool (<= 0 exclusive))
(define-fun .def_1465 () Bool (and .def_1462 .def_1464))
(define-fun .def_1460 () Bool (not env))
(define-fun .def_1466 () Bool (or .def_1460 .def_1465))
(define-fun .def_1467 () Bool (= _OK_ .def_1466))
(define-fun .def_1454 () Bool (= call__DRAGON_.ite39 call__DRAGON_.ite40))
(define-fun .def_1455 () Bool (or param_e08 .def_1454))
(define-fun .def_1451 () Bool (= call__DRAGON_.ite37 call__DRAGON_.ite40))
(define-fun .def_1452 () Bool (or .def_1428 .def_1451))
(define-fun .def_1448 () Bool (= call__DRAGON_.ite27 call__DRAGON_.ite28))
(define-fun .def_1449 () Bool (or param_e08 .def_1448))
(define-fun .def_1445 () Bool (= call__DRAGON_.ite25 call__DRAGON_.ite28))
(define-fun .def_1446 () Bool (or .def_1428 .def_1445))
(define-fun .def_1442 () Bool (= call__DRAGON_.ite17 call__DRAGON_.ite18))
(define-fun .def_1443 () Bool (or param_e08 .def_1442))
(define-fun .def_1439 () Bool (= call__DRAGON_.ite18 call__DRAGON_.ite15))
(define-fun .def_1440 () Bool (or .def_1428 .def_1439))
(define-fun .def_1435 () Bool (= call__DRAGON_.ite7 call__DRAGON_.ite8))
(define-fun .def_1436 () Bool (or param_e08 .def_1435))
(define-fun .def_1432 () Bool (= call__DRAGON_.ite5 call__DRAGON_.ite8))
(define-fun .def_1433 () Bool (or .def_1428 .def_1432))
(define-fun .def_1427 () Bool (= call__DRAGON_.ite58 call__DRAGON_.ite49))
(define-fun .def_1429 () Bool (or .def_1427 .def_1428))
(define-fun .def_1423 () Bool (= call__DRAGON_.ite58 call__DRAGON_.ite57))
(define-fun .def_1425 () Bool (or .def_1423 param_e08))
(define-fun .def_1430 () Bool (and .def_1425 .def_1429))
(define-fun .def_1434 () Bool (and .def_1430 .def_1433))
(define-fun .def_1437 () Bool (and .def_1434 .def_1436))
(define-fun .def_1441 () Bool (and .def_1437 .def_1440))
(define-fun .def_1444 () Bool (and .def_1441 .def_1443))
(define-fun .def_1447 () Bool (and .def_1444 .def_1446))
(define-fun .def_1450 () Bool (and .def_1447 .def_1449))
(define-fun .def_1453 () Bool (and .def_1450 .def_1452))
(define-fun .def_1456 () Bool (and .def_1453 .def_1455))
(define-fun .def_1418 () Bool (= call__DRAGON_.ite41 call__DRAGON_.ite40))
(define-fun .def_1419 () Bool (or param_e07 .def_1418))
(define-fun .def_1414 () Bool (= call__DRAGON_.ite41 call__DRAGON_.ite36))
(define-fun .def_1415 () Bool (or .def_1410 .def_1414))
(define-fun .def_1409 () Bool (= call__DRAGON_.ite59 call__DRAGON_.ite48))
(define-fun .def_1411 () Bool (or .def_1409 .def_1410))
(define-fun .def_1405 () Bool (= call__DRAGON_.ite58 call__DRAGON_.ite59))
(define-fun .def_1407 () Bool (or .def_1405 param_e07))
(define-fun .def_1412 () Bool (and .def_1407 .def_1411))
(define-fun .def_1416 () Bool (and .def_1412 .def_1415))
(define-fun .def_1420 () Bool (and .def_1416 .def_1419))
(define-fun .def_1399 () Bool (= call__DRAGON_.ite42 call__DRAGON_.ite41))
(define-fun .def_1400 () Bool (or param_e05 .def_1399))
(define-fun .def_1395 () Bool (= call__DRAGON_.ite35 call__DRAGON_.ite42))
(define-fun .def_1396 () Bool (or .def_1390 .def_1395))
(define-fun .def_1389 () Bool (= call__DRAGON_.ite13 call__DRAGON_.ite20))
(define-fun .def_1391 () Bool (or .def_1389 .def_1390))
(define-fun .def_1386 () Bool (= call__DRAGON_.ite19 call__DRAGON_.ite20))
(define-fun .def_1388 () Bool (or .def_1386 param_e05))
(define-fun .def_1392 () Bool (and .def_1388 .def_1391))
(define-fun .def_1397 () Bool (and .def_1392 .def_1396))
(define-fun .def_1401 () Bool (and .def_1397 .def_1400))
(define-fun .def_1382 () Bool (= call__DRAGON_.ite29 call__DRAGON_.ite28))
(define-fun .def_1383 () Bool (or param_e06 .def_1382))
(define-fun .def_1378 () Bool (= call__DRAGON_.ite24 call__DRAGON_.ite29))
(define-fun .def_1379 () Bool (or .def_1374 .def_1378))
(define-fun .def_1373 () Bool (= call__DRAGON_.ite19 call__DRAGON_.ite14))
(define-fun .def_1375 () Bool (or .def_1373 .def_1374))
(define-fun .def_1369 () Bool (= call__DRAGON_.ite19 call__DRAGON_.ite18))
(define-fun .def_1371 () Bool (or .def_1369 param_e06))
(define-fun .def_1376 () Bool (and .def_1371 .def_1375))
(define-fun .def_1380 () Bool (and .def_1376 .def_1379))
(define-fun .def_1384 () Bool (and .def_1380 .def_1383))
(define-fun .def_1402 () Bool (and .def_1384 .def_1401))
(define-fun .def_1421 () Bool (and .def_1402 .def_1420))
(define-fun .def_1457 () Bool (and .def_1421 .def_1456))
(define-fun .def_1468 () Bool (and .def_1457 .def_1467))
(define-fun .def_1471 () Bool (and .def_1468 .def_1470))
(define-fun .def_1474 () Bool (and .def_1471 .def_1473))
(define-fun .def_1478 () Bool (and .def_1474 .def_1477))
(define-fun .def_1482 () Bool (and .def_1478 .def_1481))
(define-fun .def_1486 () Bool (and .def_1482 .def_1485))
(define-fun .def_1490 () Bool (and .def_1486 .def_1489))
(define-fun .def_1498 () Bool (and .def_1490 .def_1497))
(define-fun .def_1501 () Bool (and .def_1498 .def_1500))
(define-fun .def_1509 () Bool (and .def_1501 .def_1508))
(define-fun .def_1516 () Bool (and .def_1509 .def_1515))
(define-fun .def_1536 () Bool (and .def_1516 .def_1535))
(define-fun .def_1577 () Bool (and .def_1536 .def_1576))
(define-fun .def_1594 () Bool (and .def_1577 .def_1593))
(define-fun .def_1609 () Bool (and .def_1594 .def_1608))
(define-fun .def_1619 () Bool (and .def_1609 .def_1618))
(define-fun .def_1621 () Bool (and .def_1619 .def_1620))
(define-fun .def_1623 () Bool (and .def_1621 .def_1622))
(define-fun .def_1625 () Bool (and .def_1623 .def_1624))
(define-fun .def_1627 () Bool (and .def_1625 .def_1626))
(define-fun .def_1629 () Bool (and .def_1627 .def_1628))
(define-fun .def_1631 () Bool (and .def_1629 .def_1630))
(define-fun .def_1733 () Bool (and .def_1631 .def_1732))
(define-fun .def_1735 () Bool (and .def_1733 .def_1734))
(define-fun .def_1360 () Bool (<= param_init_invalid 0))
(define-fun .def_1361 () Bool (not .def_1360))
(define-fun .def_1363 () Bool (and .def_1361 call_excludes12.excludes))
(define-fun .def_1365 () Bool (= .def_1363 call_Sofar.flby))
(define-fun .def_1358 () Bool (= call__DRAGON_.flby4 0))
(define-fun .def_1355 () Bool (= call__DRAGON_.flby3 0))
(define-fun .def_1352 () Bool (= call__DRAGON_.flby2 0))
(define-fun .def_1349 () Bool (= param_init_invalid call__DRAGON_.flby))
(define-fun .def_1343 () Bool (= call__DRAGON_.ite37 0))
(define-fun .def_1336 () Bool (not call__DRAGON_.g08))
(define-fun .def_1344 () Bool (or .def_1336 .def_1343))
(define-fun .def_1339 () Bool (= call__DRAGON_.ite5 0))
(define-fun .def_1340 () Bool (or .def_1336 .def_1339))
(define-fun .def_1334 () Bool (= call__DRAGON_.ite25 1))
(define-fun .def_1337 () Bool (or .def_1334 .def_1336))
(define-fun .def_1341 () Bool (and .def_1337 .def_1340))
(define-fun .def_1345 () Bool (and .def_1341 .def_1344))
(define-fun .def_1330 () Bool (= call__DRAGON_.ite24 1))
(define-fun .def_1328 () Bool (not call__DRAGON_.g06))
(define-fun .def_1331 () Bool (or .def_1328 .def_1330))
(define-fun .def_1324 () Bool (= call__DRAGON_.ite13 0))
(define-fun .def_1322 () Bool (not call__DRAGON_.g05))
(define-fun .def_1325 () Bool (or .def_1322 .def_1324))
(define-fun .def_1318 () Bool (= call__DRAGON_.ite23 0))
(define-fun .def_1316 () Bool (not call__DRAGON_.g04))
(define-fun .def_1319 () Bool (or .def_1316 .def_1318))
(define-fun .def_1311 () Bool (= call__DRAGON_.ite3 0))
(define-fun .def_1308 () Bool (not call__DRAGON_.g02))
(define-fun .def_1312 () Bool (or .def_1308 .def_1311))
(define-fun .def_1306 () Bool (= call__DRAGON_.ite32 0))
(define-fun .def_1309 () Bool (or .def_1306 .def_1308))
(define-fun .def_1313 () Bool (and .def_1309 .def_1312))
(define-fun .def_1303 () Bool (= call__DRAGON_.flby6 call__DRAGON_.mem_init))
(define-fun .def_1299 () Bool (= call__DRAGON_.flby5 0))
(define-fun .def_1294 () Bool (= call__DRAGON_.ite53 call__DRAGON_.ite54))
(define-fun .def_1295 () Bool (or .def_1290 .def_1294))
(define-fun .def_1288 () Bool (= call__DRAGON_.ite6 call__DRAGON_.ite7))
(define-fun .def_1291 () Bool (or .def_1288 .def_1290))
(define-fun .def_1296 () Bool (and .def_1291 .def_1295))
(define-fun .def_1281 () Bool (= call__DRAGON_.ite26 call__DRAGON_.ite27))
(define-fun .def_1284 () Bool (or .def_1281 .def_1283))
(define-fun .def_1274 () Bool (= call__DRAGON_.ite16 call__DRAGON_.ite17))
(define-fun .def_1277 () Bool (or .def_1274 .def_1276))
(define-fun .def_1268 () Bool (= call__DRAGON_.ite38 call__DRAGON_.ite39))
(define-fun .def_1271 () Bool (or .def_1268 .def_1270))
(define-fun .def_1278 () Bool (and .def_1271 .def_1277))
(define-fun .def_1285 () Bool (and .def_1278 .def_1284))
(define-fun .def_1297 () Bool (and .def_1285 .def_1296))
(define-fun .def_1300 () Bool (and .def_1297 .def_1299))
(define-fun .def_1304 () Bool (and .def_1300 .def_1303))
(define-fun .def_1314 () Bool (and .def_1304 .def_1313))
(define-fun .def_1320 () Bool (and .def_1314 .def_1319))
(define-fun .def_1326 () Bool (and .def_1320 .def_1325))
(define-fun .def_1332 () Bool (and .def_1326 .def_1331))
(define-fun .def_1346 () Bool (and .def_1332 .def_1345))
(define-fun .def_1350 () Bool (and .def_1346 .def_1349))
(define-fun .def_1353 () Bool (and .def_1350 .def_1352))
(define-fun .def_1356 () Bool (and .def_1353 .def_1355))
(define-fun .def_1359 () Bool (and .def_1356 .def_1358))
(define-fun .def_1366 () Bool (and .def_1359 .def_1365))
(define-fun .def_1736 () Bool (and .def_1366 .def_1735))
(assert .def_1736)
